column=9;
row=9;
left=[2, 4, 0, 2, 0, 0, 3, 1, 0];
right=[2, 2, 0, 3, 5, 3, 3, 4, 0];
top=[0, 1, 4, 4, 0, 2, 4, 0, 2];
bottom=[0, 3, 0, 0, 0, 3, 3, 0, 1];
Board=[|0,9,1,3,0,7,0,0,8|4,7,0,0,0,1,0,0,0|0,0,0,4,9,2,0,6,7|7,6,3,0,2,9,0,0,0|1,0,0,7,0,8,6,0,0|0,0,0,0,0,0,0,0,1|5,0,7,9,1,4,3,0,0|9,0,6,0,0,0,0,0,0|3,0,0,8,7,6,0,0,0|]